(set-option :smt.auto-config false)
(set-option :smt.mbqi false)
(set-option :sat.random_seed 488)
(set-option :smt.random_seed 599)
(set-option :nlsat.seed 611)
(set-option :memory_max_size 6000)
(declare-fun P (Int) Bool)
(declare-sort RegExStr 0)
(declare-sort RMode 0)
(declare-fun Q (Int) Bool)
(declare-fun k () Int)
(assert (! (forall ((x0py0 Int)) (! (P x0py0) :pattern ((Q x0py0)) )) :named A0))
(assert (! (not (P k)) :named A1))
